140
200
160	7
159	7
158	7
157	9
156	7
155	7
154	4
153	5
152	5
151	7
150	4
148	6
147	10
146	8
145	7
144	6
143	8
142	2
141	6
140	7
139	3
138	9
137	10
136	5
135	6
134	6
133	4
132	4
131	7
130	7
129	4
128	10
127	6
126	4
125	9
124	3
123	6
122	4
121	5
120	3
119	7
118	9
117	7
116	13
115	9
114	6
113	10
112	6
111	8
110	4
109	5
108	6
107	10
106	8
105	6
104	7
103	10
102	3
101	7
100	4
99	13
98	10
97	5
96	6
95	6
94	8
93	7
92	5
91	9
90	10
89	5
88	8
87	4
86	6
85	12
84	4
83	9
82	8
81	4
80	8
79	8
78	6
77	5
76	7
75	7
74	9
73	3
72	7
71	7
70	4
69	6
68	7
67	10
66	6
65	9
64	7
63	11
62	13
61	8
60	6
59	9
58	10
57	9
56	10
55	8
54	11
53	7
52	6
51	11
50	8
49	5
48	7
47	6
46	12
45	12
44	9
43	9
42	9
41	12
40	10
39	6
38	6
37	3
36	7
35	7
34	6
33	5
32	4
31	6
30	9
29	7
28	6
27	11
26	10
25	6
24	13
23	8
22	8
21	5
20	5
